200
1000
378
378
375
374
373
366
363
362
359
358
353
352
350
348
348
347
345
343
339
339
330
329
323
323
322
321
320
318
317
315
314
313
311
308
306
301
298
297
292
292
292
291
283
283
282
281
281
269
266
266
266
265
265
262
258
256
256
252
247
246
244
242
241
241
241
239
239
237
235
235
231
231
229
228
224
223
223
221
220
218
212
210
210
207
207
206
205
205
202
200
193
193
193
190
189
189
188
188
187
187
186
184
182
180
178
178
177
175
173
172
172
171
169
167
167
162
161
159
159
159
158
157
156
155
154
153
152
151
149
149
149
146
146
145
144
144
142
137
137
135
134
133
132
132
128
124
124
123
120
116
116
115
115
110
107
107
103
101
98
96
91
91
86
84
83
83
82
79
75
74
74
72
72
65
62
61
59
59
54
52
50
47
46
45
43
43
41
39
39
39
37
35
34
33
31
30
29
28
26
22
